--------------------------------------------------------------------------------(Solver execution current time: 0.00016021728515625)
[INFO] Input Seed : 257161
--------------------------------------------------------------------------------(Solver execution current time: 0.0001938343048095703)
[INFO] Input time limit : 30
--------------------------------------------------------------------------------(Solver execution current time: 0.0002231597900390625)
[INFO] Command line arguments read with no errors.
--------------------------------------------------------------------------------(Solver execution current time: 0.06142830848693848)
[INFO] Input file read with no errors.
--------------------------------------------------------------------------------(Solver execution current time: 0.06152534484863281)
[INFO] Starting solver.
--------------------------------------------------------------------------------(Solver execution current time: 0.06156754493713379)
[INFO] Starting construction
--------------------------------------------------------------------------------(Solver execution current time: 14.40388798713684)
[INFO] Finished construction
--------------------------------------------------------------------------------(Solver execution current time: 14.4039785861969)
[SOLUTION]
Basic Greedy Heuristic
Exec Time: 14.342320919036865
obj_value: -89; obj_routes: 34289.0
Route 1 : 46 95 195 88 51 22 188 122 81 16 56 6 58 68 156 158 151 106 146 181 52 168 116 152 73 18 173 118 20 120 96 196 
Route 2 : 3 62 13 27 12 162 103 112 41 17 141 117 92 34 127 192 113 134 19 65 29 119 129 63 163 165 
Route 3 : 77 177 59 30 130 44 37 91 191 14 159 144 23 137 123 114 43 66 72 143 87 187 172 47 97 197 166 40 147 70 140 170 
Route 4 : 10 110 75 175 57 7 31 55 155 107 64 131 164 157 9 39 139 109 53 153 11 111 74 174 
Route 5 : 78 178 94 83 194 33 183 85 133 185 42 142 76 176 28 93 193 32 67 71 132 171 128 167 
Route 6 : 49 1 80 180 149 101 5 105 79 179 89 189 86 186 24 124 
Route 7 : 61 2 98 102 198 38 25 125 161 138 
Route 8 : 90 190 26 35 135 126 
Route 9 : 4 104 8 21 121 108 
Route 10 : 36 136 
Route 11 : 
Route 12 : 
Route 13 : 
Route 14 : 
Route 15 : 
Route 16 : 
Route 17 : 
Route 18 : 
Route 19 : 
Route 20 : 
Route 21 : 

--------------------------------------------------------------------------------(Solver execution current time: 14.40515685081482)
[SOLUTION]
Solution after BasicGreedyLimitedHeterogeneousFleet
obj_value: -89; obj_routes: 34289.0
Route 1 : 46 95 195 88 51 22 188 122 81 16 56 6 58 68 156 158 151 106 146 181 52 168 116 152 73 18 173 118 20 120 96 196 
Route 2 : 3 62 13 27 12 162 103 112 41 17 141 117 92 34 127 192 113 134 19 65 29 119 129 63 163 165 
Route 3 : 77 177 59 30 130 44 37 91 191 14 159 144 23 137 123 114 43 66 72 143 87 187 172 47 97 197 166 40 147 70 140 170 
Route 4 : 10 110 75 175 57 7 31 55 155 107 64 131 164 157 9 39 139 109 53 153 11 111 74 174 
Route 5 : 78 178 94 83 194 33 183 85 133 185 42 142 76 176 28 93 193 32 67 71 132 171 128 167 
Route 6 : 49 1 80 180 149 101 5 105 79 179 89 189 86 186 24 124 
Route 7 : 61 2 98 102 198 38 25 125 161 138 
Route 8 : 90 190 26 35 135 126 
Route 9 : 4 104 8 21 121 108 
Route 10 : 36 136 
Route 11 : 
Route 12 : 
Route 13 : 
Route 14 : 
Route 15 : 
Route 16 : 
Route 17 : 
Route 18 : 
Route 19 : 
Route 20 : 
Route 21 : 

--------------------------------------------------------------------------------(Solver execution current time: 14.405418872833252)
[INFO] Starting metaheuristic
--------------------------------------------------------------------------------(Solver execution current time: 14.408511877059937)
[INFO] AGES EXCLUDED
--------------------------------------------------------------------------------(Solver execution current time: 14.41022539138794)
[INFO] Starting LNS
--------------------------------------------------------------------------------(Solver execution current time: 16.131924867630005)
[SOLUTION]
LNS
IT: 40
Exec Time: 1.7193717956542969
obj_value: -89; obj_routes: 34289.0
Route 1 : 46 95 195 88 51 22 188 122 81 16 56 6 58 68 156 158 151 106 146 181 52 168 116 152 73 18 173 118 20 120 96 196 
Route 2 : 3 62 13 27 12 162 103 112 41 17 141 117 92 34 127 192 113 134 19 65 29 119 129 63 163 165 
Route 3 : 77 177 59 30 130 44 37 91 191 14 159 144 23 137 123 114 43 66 72 143 87 187 172 47 97 197 166 40 147 70 140 170 
Route 4 : 10 110 75 175 57 7 31 55 155 107 64 131 164 157 9 39 139 109 53 153 11 111 74 174 
Route 5 : 78 178 94 83 194 33 183 85 133 185 42 142 76 176 28 93 193 32 67 71 132 171 128 167 
Route 6 : 49 1 80 180 149 101 5 105 79 179 89 189 86 186 24 124 
Route 7 : 61 2 98 102 198 38 25 125 161 138 
Route 8 : 90 190 26 35 135 126 
Route 9 : 4 104 8 21 121 108 
Route 10 : 36 136 
Route 11 : 
Route 12 : 
Route 13 : 
Route 14 : 
Route 15 : 
Route 16 : 
Route 17 : 
Route 18 : 
Route 19 : 
Route 20 : 
Route 21 : 

--------------------------------------------------------------------------------(Solver execution current time: 16.134119987487793)
[INFO] Starting PartitionMaxRequestsHF
--------------------------------------------------------------------------------(Solver execution current time: 16.188865661621094)
[SOLUTION]
PartitionMaxRequestsHF
Exec Time: 0.054688215255737305
obj_value: -89; obj_routes: 34289.0
Route 1 : 46 95 195 88 51 22 188 122 81 16 56 6 58 68 156 158 151 106 146 181 52 168 116 152 73 18 173 118 20 120 96 196 
Route 2 : 3 62 13 27 12 162 103 112 41 17 141 117 92 34 127 192 113 134 19 65 29 119 129 63 163 165 
Route 3 : 77 177 59 30 130 44 37 91 191 14 159 144 23 137 123 114 43 66 72 143 87 187 172 47 97 197 166 40 147 70 140 170 
Route 4 : 10 110 75 175 57 7 31 55 155 107 64 131 164 157 9 39 139 109 53 153 11 111 74 174 
Route 5 : 78 178 94 83 194 33 183 85 133 185 42 142 76 176 28 93 193 32 67 71 132 171 128 167 
Route 6 : 49 1 80 180 149 101 5 105 79 179 89 189 86 186 24 124 
Route 7 : 61 2 98 102 198 38 25 125 161 138 
Route 8 : 90 190 26 35 135 126 
Route 9 : 4 104 8 21 121 108 
Route 10 : 36 136 
Route 11 : 
Route 12 : 
Route 13 : 
Route 14 : 
Route 15 : 
Route 16 : 
Route 17 : 
Route 18 : 
Route 19 : 
Route 20 : 
Route 21 : 

--------------------------------------------------------------------------------(Solver execution current time: 16.190983533859253)
[INFO] Starting OriginalPerturbation
--------------------------------------------------------------------------------(Solver execution current time: 19.51021909713745)
[SOLUTION]
Original Perturbation
Exec Time: 3.320925235748291
obj_value: -89; obj_routes: 35469.0
Route 1 : 46 95 195 88 51 22 188 122 81 16 56 6 58 68 156 158 151 106 146 181 52 168 116 152 73 18 173 118 20 120 96 196 
Route 2 : 3 62 13 27 12 162 103 112 41 17 141 117 92 34 127 192 113 134 19 65 29 119 129 63 163 165 
Route 3 : 77 177 59 30 130 44 37 91 191 14 159 144 23 137 123 114 43 66 72 143 87 187 172 47 97 197 166 40 147 70 140 170 
Route 4 : 10 110 75 175 57 7 31 55 155 107 64 131 164 157 9 39 139 109 53 153 11 111 74 174 
Route 5 : 78 178 94 83 194 33 183 85 133 185 42 142 76 176 93 193 32 71 132 171 
Route 6 : 49 1 80 180 149 101 5 105 79 179 89 189 86 186 
Route 7 : 2 98 102 198 38 25 125 138 
Route 8 : 90 190 26 35 135 126 
Route 9 : 24 67 124 167 
Route 10 : 
Route 11 : 61 161 
Route 12 : 4 104 8 108 
Route 13 : 21 28 36 136 121 128 
Route 14 : 
Route 15 : 
Route 16 : 
Route 17 : 
Route 18 : 
Route 19 : 
Route 20 : 
Route 21 : 

--------------------------------------------------------------------------------(Solver execution current time: 19.512160539627075)
[SOLUTION]
SBMath
IT: 1
ITs witout improving: 1
IT time: 5.103652238845825
Time since begin: 5.104681491851807
obj_value: -89; obj_routes: 35469.0
Route 1 : 46 95 195 88 51 22 188 122 81 16 56 6 58 68 156 158 151 106 146 181 52 168 116 152 73 18 173 118 20 120 96 196 
Route 2 : 3 62 13 27 12 162 103 112 41 17 141 117 92 34 127 192 113 134 19 65 29 119 129 63 163 165 
Route 3 : 77 177 59 30 130 44 37 91 191 14 159 144 23 137 123 114 43 66 72 143 87 187 172 47 97 197 166 40 147 70 140 170 
Route 4 : 10 110 75 175 57 7 31 55 155 107 64 131 164 157 9 39 139 109 53 153 11 111 74 174 
Route 5 : 78 178 94 83 194 33 183 85 133 185 42 142 76 176 93 193 32 71 132 171 
Route 6 : 49 1 80 180 149 101 5 105 79 179 89 189 86 186 
Route 7 : 2 98 102 198 38 25 125 138 
Route 8 : 90 190 26 35 135 126 
Route 9 : 24 67 124 167 
Route 10 : 
Route 11 : 61 161 
Route 12 : 4 104 8 108 
Route 13 : 21 28 36 136 121 128 
Route 14 : 
Route 15 : 
Route 16 : 
Route 17 : 
Route 18 : 
Route 19 : 
Route 20 : 
Route 21 : 

--------------------------------------------------------------------------------(Solver execution current time: 19.51242709159851)
[SOLUTION]
SBMath
IT: 1
ITs witout improving: 1
IT time: 5.103652238845825
Time since begin: 5.104681491851807
obj_value: -89; obj_routes: 34289.0
Route 1 : 46 95 195 88 51 22 188 122 81 16 56 6 58 68 156 158 151 106 146 181 52 168 116 152 73 18 173 118 20 120 96 196 
Route 2 : 3 62 13 27 12 162 103 112 41 17 141 117 92 34 127 192 113 134 19 65 29 119 129 63 163 165 
Route 3 : 77 177 59 30 130 44 37 91 191 14 159 144 23 137 123 114 43 66 72 143 87 187 172 47 97 197 166 40 147 70 140 170 
Route 4 : 10 110 75 175 57 7 31 55 155 107 64 131 164 157 9 39 139 109 53 153 11 111 74 174 
Route 5 : 78 178 94 83 194 33 183 85 133 185 42 142 76 176 28 93 193 32 67 71 132 171 128 167 
Route 6 : 49 1 80 180 149 101 5 105 79 179 89 189 86 186 24 124 
Route 7 : 61 2 98 102 198 38 25 125 161 138 
Route 8 : 90 190 26 35 135 126 
Route 9 : 4 104 8 21 121 108 
Route 10 : 36 136 
Route 11 : 
Route 12 : 
Route 13 : 
Route 14 : 
Route 15 : 
Route 16 : 
Route 17 : 
Route 18 : 
Route 19 : 
Route 20 : 
Route 21 : 

--------------------------------------------------------------------------------(Solver execution current time: 19.51269245147705)
[INFO] AGES EXCLUDED
--------------------------------------------------------------------------------(Solver execution current time: 19.514471292495728)
[INFO] Starting LNS
--------------------------------------------------------------------------------(Solver execution current time: 20.85391139984131)
[SOLUTION]
LNS
IT: 40
Exec Time: 1.3371176719665527
obj_value: -89; obj_routes: 35469.0
Route 1 : 46 95 195 88 51 22 188 122 81 16 56 6 58 68 156 158 151 106 146 181 52 168 116 152 73 18 173 118 20 120 96 196 
Route 2 : 3 62 13 27 12 162 103 112 41 17 141 117 92 34 127 192 113 134 19 65 29 119 129 63 163 165 
Route 3 : 77 177 59 30 130 44 37 91 191 14 159 144 23 137 123 114 43 66 72 143 87 187 172 47 97 197 166 40 147 70 140 170 
Route 4 : 10 110 75 175 57 7 31 55 155 107 64 131 164 157 9 39 139 109 53 153 11 111 74 174 
Route 5 : 78 178 94 83 194 33 183 85 133 185 42 142 76 176 93 193 32 71 132 171 
Route 6 : 49 1 80 180 149 101 5 105 79 179 89 189 86 186 
Route 7 : 2 98 102 198 38 25 125 138 
Route 8 : 90 190 26 35 135 126 
Route 9 : 24 67 124 167 
Route 10 : 
Route 11 : 61 161 
Route 12 : 4 104 8 108 
Route 13 : 21 28 36 136 121 128 
Route 14 : 
Route 15 : 
Route 16 : 
Route 17 : 
Route 18 : 
Route 19 : 
Route 20 : 
Route 21 : 

--------------------------------------------------------------------------------(Solver execution current time: 20.856775045394897)
[INFO] Starting PartitionMaxRequestsHF
--------------------------------------------------------------------------------(Solver execution current time: 20.884191036224365)
[SOLUTION]
PartitionMaxRequestsHF
Exec Time: 0.02735447883605957
Improvedobj_value: -89; obj_routes: 34673.0
Route 1 : 46 95 195 88 51 22 188 122 81 16 56 6 58 68 156 158 151 106 146 181 52 168 116 152 73 18 173 118 20 120 96 196 
Route 2 : 3 62 13 27 12 162 103 112 41 17 141 117 92 34 127 192 113 134 19 65 29 119 129 63 163 165 
Route 3 : 77 177 59 30 130 44 37 91 191 14 159 144 23 137 123 114 43 66 72 143 87 187 172 47 97 197 166 40 147 70 140 170 
Route 4 : 10 110 75 175 57 7 31 55 155 107 64 131 164 157 9 39 139 109 53 153 11 111 74 174 
Route 5 : 78 178 94 83 194 33 183 85 133 185 42 142 76 176 28 93 193 32 67 71 132 171 128 167 
Route 6 : 49 1 80 180 149 101 5 105 79 179 89 189 86 186 24 124 
Route 7 : 90 190 26 35 135 126 
Route 8 : 4 104 8 21 121 108 
Route 9 : 36 136 
Route 10 : 2 98 102 198 38 25 125 138 
Route 11 : 61 161 
Route 12 : 
Route 13 : 
Route 14 : 
Route 15 : 
Route 16 : 
Route 17 : 
Route 18 : 
Route 19 : 
Route 20 : 
Route 21 : 

--------------------------------------------------------------------------------(Solver execution current time: 20.886582374572754)
[INFO] Starting OriginalPerturbation
--------------------------------------------------------------------------------(Solver execution current time: 23.35024118423462)
[SOLUTION]
Original Perturbation
Exec Time: 2.4655497074127197
obj_value: -89; obj_routes: 36327.0
Route 1 : 46 95 195 88 51 22 188 122 81 16 56 6 58 68 156 158 151 106 146 181 52 168 116 152 73 18 173 118 20 120 96 196 
Route 2 : 3 62 13 27 12 162 103 112 41 17 141 117 92 34 127 192 113 134 19 65 29 119 129 63 163 165 
Route 3 : 77 177 59 30 130 44 37 91 191 14 159 144 23 137 123 114 43 66 72 143 87 187 172 47 97 197 166 40 147 70 140 170 
Route 4 : 10 110 75 175 57 7 31 55 155 107 64 131 164 157 9 39 139 109 53 153 11 111 74 174 
Route 5 : 78 178 94 83 194 33 183 85 133 185 42 142 76 176 8 67 32 132 167 108 
Route 6 : 49 1 80 180 149 101 5 105 79 179 89 189 
Route 7 : 2 86 98 186 102 198 
Route 8 : 90 190 26 35 135 126 
Route 9 : 38 138 21 121 
Route 10 : 93 193 
Route 11 : 61 161 
Route 12 : 25 125 
Route 13 : 28 36 136 128 71 171 
Route 14 : 24 124 
Route 15 : 4 104 
Route 16 : 
Route 17 : 
Route 18 : 
Route 19 : 
Route 20 : 
Route 21 : 

--------------------------------------------------------------------------------(Solver execution current time: 23.352204084396362)
[SOLUTION]
SBMath
IT: 2
ITs witout improving: 2
IT time: 3.83951997756958
Time since begin: 8.944725275039673
obj_value: -89; obj_routes: 36327.0
Route 1 : 46 95 195 88 51 22 188 122 81 16 56 6 58 68 156 158 151 106 146 181 52 168 116 152 73 18 173 118 20 120 96 196 
Route 2 : 3 62 13 27 12 162 103 112 41 17 141 117 92 34 127 192 113 134 19 65 29 119 129 63 163 165 
Route 3 : 77 177 59 30 130 44 37 91 191 14 159 144 23 137 123 114 43 66 72 143 87 187 172 47 97 197 166 40 147 70 140 170 
Route 4 : 10 110 75 175 57 7 31 55 155 107 64 131 164 157 9 39 139 109 53 153 11 111 74 174 
Route 5 : 78 178 94 83 194 33 183 85 133 185 42 142 76 176 8 67 32 132 167 108 
Route 6 : 49 1 80 180 149 101 5 105 79 179 89 189 
Route 7 : 2 86 98 186 102 198 
Route 8 : 90 190 26 35 135 126 
Route 9 : 38 138 21 121 
Route 10 : 93 193 
Route 11 : 61 161 
Route 12 : 25 125 
Route 13 : 28 36 136 128 71 171 
Route 14 : 24 124 
Route 15 : 4 104 
Route 16 : 
Route 17 : 
Route 18 : 
Route 19 : 
Route 20 : 
Route 21 : 

--------------------------------------------------------------------------------(Solver execution current time: 23.352453470230103)
[SOLUTION]
SBMath
IT: 2
ITs witout improving: 2
IT time: 3.83951997756958
Time since begin: 8.944725275039673
obj_value: -89; obj_routes: 34289.0
Route 1 : 46 95 195 88 51 22 188 122 81 16 56 6 58 68 156 158 151 106 146 181 52 168 116 152 73 18 173 118 20 120 96 196 
Route 2 : 3 62 13 27 12 162 103 112 41 17 141 117 92 34 127 192 113 134 19 65 29 119 129 63 163 165 
Route 3 : 77 177 59 30 130 44 37 91 191 14 159 144 23 137 123 114 43 66 72 143 87 187 172 47 97 197 166 40 147 70 140 170 
Route 4 : 10 110 75 175 57 7 31 55 155 107 64 131 164 157 9 39 139 109 53 153 11 111 74 174 
Route 5 : 78 178 94 83 194 33 183 85 133 185 42 142 76 176 28 93 193 32 67 71 132 171 128 167 
Route 6 : 49 1 80 180 149 101 5 105 79 179 89 189 86 186 24 124 
Route 7 : 61 2 98 102 198 38 25 125 161 138 
Route 8 : 90 190 26 35 135 126 
Route 9 : 4 104 8 21 121 108 
Route 10 : 36 136 
Route 11 : 
Route 12 : 
Route 13 : 
Route 14 : 
Route 15 : 
Route 16 : 
Route 17 : 
Route 18 : 
Route 19 : 
Route 20 : 
Route 21 : 

--------------------------------------------------------------------------------(Solver execution current time: 23.352704524993896)
[INFO] AGES EXCLUDED
--------------------------------------------------------------------------------(Solver execution current time: 23.354484796524048)
[INFO] Starting LNS
--------------------------------------------------------------------------------(Solver execution current time: 24.606077671051025)
[SOLUTION]
LNS
IT: 40
Exec Time: 1.249243974685669
obj_value: -89; obj_routes: 36327.0
Route 1 : 46 95 195 88 51 22 188 122 81 16 56 6 58 68 156 158 151 106 146 181 52 168 116 152 73 18 173 118 20 120 96 196 
Route 2 : 3 62 13 27 12 162 103 112 41 17 141 117 92 34 127 192 113 134 19 65 29 119 129 63 163 165 
Route 3 : 77 177 59 30 130 44 37 91 191 14 159 144 23 137 123 114 43 66 72 143 87 187 172 47 97 197 166 40 147 70 140 170 
Route 4 : 10 110 75 175 57 7 31 55 155 107 64 131 164 157 9 39 139 109 53 153 11 111 74 174 
Route 5 : 78 178 94 83 194 33 183 85 133 185 42 142 76 176 8 67 32 132 167 108 
Route 6 : 49 1 80 180 149 101 5 105 79 179 89 189 
Route 7 : 2 86 98 186 102 198 
Route 8 : 90 190 26 35 135 126 
Route 9 : 38 138 21 121 
Route 10 : 93 193 
Route 11 : 61 161 
Route 12 : 25 125 
Route 13 : 28 36 136 128 71 171 
Route 14 : 24 124 
Route 15 : 4 104 
Route 16 : 
Route 17 : 
Route 18 : 
Route 19 : 
Route 20 : 
Route 21 : 

--------------------------------------------------------------------------------(Solver execution current time: 24.60900616645813)
[INFO] Starting PartitionMaxRequestsHF
--------------------------------------------------------------------------------(Solver execution current time: 24.660677671432495)
[SOLUTION]
PartitionMaxRequestsHF
Exec Time: 0.05158567428588867
obj_value: -89; obj_routes: 36327.0
Route 1 : 46 95 195 88 51 22 188 122 81 16 56 6 58 68 156 158 151 106 146 181 52 168 116 152 73 18 173 118 20 120 96 196 
Route 2 : 3 62 13 27 12 162 103 112 41 17 141 117 92 34 127 192 113 134 19 65 29 119 129 63 163 165 
Route 3 : 77 177 59 30 130 44 37 91 191 14 159 144 23 137 123 114 43 66 72 143 87 187 172 47 97 197 166 40 147 70 140 170 
Route 4 : 10 110 75 175 57 7 31 55 155 107 64 131 164 157 9 39 139 109 53 153 11 111 74 174 
Route 5 : 90 190 26 35 135 126 
Route 6 : 61 161 
Route 7 : 78 178 94 83 194 33 183 85 133 185 42 142 76 176 8 67 32 132 167 108 
Route 8 : 49 1 80 180 149 101 5 105 79 179 89 189 
Route 9 : 2 86 98 186 102 198 
Route 10 : 38 138 21 121 
Route 11 : 93 193 
Route 12 : 25 125 
Route 13 : 28 36 136 128 71 171 
Route 14 : 24 124 
Route 15 : 4 104 
Route 16 : 
Route 17 : 
Route 18 : 
Route 19 : 
Route 20 : 
Route 21 : 

--------------------------------------------------------------------------------(Solver execution current time: 24.663283586502075)
[INFO] Starting OriginalPerturbation
--------------------------------------------------------------------------------(Solver execution current time: 26.763328552246094)
[SOLUTION]
Original Perturbation
Exec Time: 2.102050542831421
obj_value: -89; obj_routes: 35767.0
Route 1 : 46 95 195 88 51 22 188 122 81 16 56 6 58 68 156 158 151 106 146 181 52 168 116 152 73 18 173 118 20 120 96 196 
Route 2 : 3 62 13 27 12 162 103 112 41 17 141 117 92 34 127 192 113 134 19 65 29 119 129 63 163 165 
Route 3 : 77 177 59 30 130 44 37 91 191 14 159 144 23 137 123 114 43 66 72 143 87 187 172 47 97 197 166 40 147 70 140 170 
Route 4 : 10 110 75 175 57 7 31 55 155 107 64 131 164 157 9 39 139 109 53 153 11 111 
Route 5 : 78 178 94 83 194 33 183 85 133 185 42 142 76 176 8 28 32 128 132 108 
Route 6 : 49 1 80 180 149 101 5 105 79 179 89 189 
Route 7 : 35 135 
Route 8 : 86 186 24 124 
Route 9 : 25 125 
Route 10 : 93 36 74 193 136 174 
Route 11 : 61 38 161 138 
Route 12 : 2 21 121 102 
Route 13 : 4 104 71 171 
Route 14 : 26 90 126 190 
Route 15 : 98 198 67 167 
Route 16 : 
Route 17 : 
Route 18 : 
Route 19 : 
Route 20 : 
Route 21 : 

--------------------------------------------------------------------------------(Solver execution current time: 26.765498876571655)
[SOLUTION]
SBMath
IT: 3
ITs witout improving: 3
IT time: 3.4128007888793945
Time since begin: 12.358019351959229
obj_value: -89; obj_routes: 35767.0
Route 1 : 46 95 195 88 51 22 188 122 81 16 56 6 58 68 156 158 151 106 146 181 52 168 116 152 73 18 173 118 20 120 96 196 
Route 2 : 3 62 13 27 12 162 103 112 41 17 141 117 92 34 127 192 113 134 19 65 29 119 129 63 163 165 
Route 3 : 77 177 59 30 130 44 37 91 191 14 159 144 23 137 123 114 43 66 72 143 87 187 172 47 97 197 166 40 147 70 140 170 
Route 4 : 10 110 75 175 57 7 31 55 155 107 64 131 164 157 9 39 139 109 53 153 11 111 
Route 5 : 78 178 94 83 194 33 183 85 133 185 42 142 76 176 8 28 32 128 132 108 
Route 6 : 49 1 80 180 149 101 5 105 79 179 89 189 
Route 7 : 35 135 
Route 8 : 86 186 24 124 
Route 9 : 25 125 
Route 10 : 93 36 74 193 136 174 
Route 11 : 61 38 161 138 
Route 12 : 2 21 121 102 
Route 13 : 4 104 71 171 
Route 14 : 26 90 126 190 
Route 15 : 98 198 67 167 
Route 16 : 
Route 17 : 
Route 18 : 
Route 19 : 
Route 20 : 
Route 21 : 

--------------------------------------------------------------------------------(Solver execution current time: 26.76578998565674)
[SOLUTION]
SBMath
IT: 3
ITs witout improving: 3
IT time: 3.4128007888793945
Time since begin: 12.358019351959229
obj_value: -89; obj_routes: 34289.0
Route 1 : 46 95 195 88 51 22 188 122 81 16 56 6 58 68 156 158 151 106 146 181 52 168 116 152 73 18 173 118 20 120 96 196 
Route 2 : 3 62 13 27 12 162 103 112 41 17 141 117 92 34 127 192 113 134 19 65 29 119 129 63 163 165 
Route 3 : 77 177 59 30 130 44 37 91 191 14 159 144 23 137 123 114 43 66 72 143 87 187 172 47 97 197 166 40 147 70 140 170 
Route 4 : 10 110 75 175 57 7 31 55 155 107 64 131 164 157 9 39 139 109 53 153 11 111 74 174 
Route 5 : 78 178 94 83 194 33 183 85 133 185 42 142 76 176 28 93 193 32 67 71 132 171 128 167 
Route 6 : 49 1 80 180 149 101 5 105 79 179 89 189 86 186 24 124 
Route 7 : 61 2 98 102 198 38 25 125 161 138 
Route 8 : 90 190 26 35 135 126 
Route 9 : 4 104 8 21 121 108 
Route 10 : 36 136 
Route 11 : 
Route 12 : 
Route 13 : 
Route 14 : 
Route 15 : 
Route 16 : 
Route 17 : 
Route 18 : 
Route 19 : 
Route 20 : 
Route 21 : 

--------------------------------------------------------------------------------(Solver execution current time: 26.766074180603027)
[INFO] AGES EXCLUDED
--------------------------------------------------------------------------------(Solver execution current time: 26.76789951324463)
[INFO] Starting LNS
--------------------------------------------------------------------------------(Solver execution current time: 28.244050979614258)
[SOLUTION]
LNS
IT: 40
Exec Time: 1.4737441539764404
obj_value: -89; obj_routes: 35767.0
Route 1 : 46 95 195 88 51 22 188 122 81 16 56 6 58 68 156 158 151 106 146 181 52 168 116 152 73 18 173 118 20 120 96 196 
Route 2 : 3 62 13 27 12 162 103 112 41 17 141 117 92 34 127 192 113 134 19 65 29 119 129 63 163 165 
Route 3 : 77 177 59 30 130 44 37 91 191 14 159 144 23 137 123 114 43 66 72 143 87 187 172 47 97 197 166 40 147 70 140 170 
Route 4 : 10 110 75 175 57 7 31 55 155 107 64 131 164 157 9 39 139 109 53 153 11 111 
Route 5 : 78 178 94 83 194 33 183 85 133 185 42 142 76 176 8 28 32 128 132 108 
Route 6 : 49 1 80 180 149 101 5 105 79 179 89 189 
Route 7 : 35 135 
Route 8 : 86 186 24 124 
Route 9 : 25 125 
Route 10 : 93 36 74 193 136 174 
Route 11 : 61 38 161 138 
Route 12 : 2 21 121 102 
Route 13 : 4 104 71 171 
Route 14 : 26 90 126 190 
Route 15 : 98 198 67 167 
Route 16 : 
Route 17 : 
Route 18 : 
Route 19 : 
Route 20 : 
Route 21 : 

--------------------------------------------------------------------------------(Solver execution current time: 28.246967554092407)
[INFO] Starting PartitionMaxRequestsHF
--------------------------------------------------------------------------------(Solver execution current time: 28.28413724899292)
[SOLUTION]
PartitionMaxRequestsHF
Exec Time: 0.03707480430603027
Improvedobj_value: -89; obj_routes: 35297.0
Route 1 : 46 95 195 88 51 22 188 122 81 16 56 6 58 68 156 158 151 106 146 181 52 168 116 152 73 18 173 118 20 120 96 196 
Route 2 : 3 62 13 27 12 162 103 112 41 17 141 117 92 34 127 192 113 134 19 65 29 119 129 63 163 165 
Route 3 : 77 177 59 30 130 44 37 91 191 14 159 144 23 137 123 114 43 66 72 143 87 187 172 47 97 197 166 40 147 70 140 170 
Route 4 : 49 1 80 180 149 101 5 105 79 179 89 189 86 186 24 124 
Route 5 : 90 190 26 35 135 126 
Route 6 : 25 125 
Route 7 : 10 110 75 175 57 7 31 55 155 107 64 131 164 157 9 39 139 109 53 153 11 111 
Route 8 : 78 178 94 83 194 33 183 85 133 185 42 142 76 176 8 28 32 128 132 108 
Route 9 : 93 36 74 193 136 174 
Route 10 : 61 38 161 138 
Route 11 : 2 21 121 102 
Route 12 : 4 104 71 171 
Route 13 : 98 198 67 167 
Route 14 : 
Route 15 : 
Route 16 : 
Route 17 : 
Route 18 : 
Route 19 : 
Route 20 : 
Route 21 : 

--------------------------------------------------------------------------------(Solver execution current time: 28.287211418151855)
[INFO] Starting OriginalPerturbation
--------------------------------------------------------------------------------(Solver execution current time: 30.01131296157837)
[WARNING] Time Limit Exceeded
--------------------------------------------------------------------------------(Solver execution current time: 30.01141333580017)
[WARNING] Searching current best solution.
--------------------------------------------------------------------------------(Solver execution current time: 30.013853311538696)
[INFO] Algorithm execution time : 30.014670372009277
--------------------------------------------------------------------------------(Solver execution current time: 30.016050815582275)
[SOLUTION]
Final Solution Verification
====================================
Constraints verification: 
Homogenous Capacity Constraint OK
Time Windwos Constraint OK
Pickup and Delivery Constraint OK
Fixed Requests Constraint OK
Limited Fleet Constraint OK
Heterogeneous Fleet Constraint OK
====================================
Obj Func verification: 
SOLUTION COST OK
------------------------------------
ROUTES TOTAL COST OK
------------------------------------
REQUESTS TOTAL COST OK
------------------------------------
OBJECTIVE VALUE: -89
ROUTES VALUE: 34289.0
------------------------------------

Best Solution: 
obj_value: -89; obj_routes: 34289.0
Route 1 : 46 95 195 88 51 22 188 122 81 16 56 6 58 68 156 158 151 106 146 181 52 168 116 152 73 18 173 118 20 120 96 196 
Route 2 : 3 62 13 27 12 162 103 112 41 17 141 117 92 34 127 192 113 134 19 65 29 119 129 63 163 165 
Route 3 : 77 177 59 30 130 44 37 91 191 14 159 144 23 137 123 114 43 66 72 143 87 187 172 47 97 197 166 40 147 70 140 170 
Route 4 : 10 110 75 175 57 7 31 55 155 107 64 131 164 157 9 39 139 109 53 153 11 111 74 174 
Route 5 : 78 178 94 83 194 33 183 85 133 185 42 142 76 176 28 93 193 32 67 71 132 171 128 167 
Route 6 : 49 1 80 180 149 101 5 105 79 179 89 189 86 186 24 124 
Route 7 : 61 2 98 102 198 38 25 125 161 138 
Route 8 : 90 190 26 35 135 126 
Route 9 : 4 104 8 21 121 108 
Route 10 : 36 136 
Route 11 : 
Route 12 : 
Route 13 : 
Route 14 : 
Route 15 : 
Route 16 : 
Route 17 : 
Route 18 : 
Route 19 : 
Route 20 : 
Route 21 : 

--------------------------------------------------------------------------------